Academic license - for non-commercial use only
Optimize a model with 1310 rows, 1200 columns and 55492 nonzeros
Variable types: 0 continuous, 1200 integer (1200 binary)
Coefficient statistics:
  Matrix range     [1e+00, 3e+01]
  Objective range  [1e+00, 2e+01]
  Bounds range     [1e+00, 1e+00]
  RHS range        [1e+00, 4e+01]
Presolve removed 790 rows and 636 columns
Presolve time: 0.22s
Presolved: 520 rows, 564 columns, 12723 nonzeros
Variable types: 0 continuous, 564 integer (564 binary)
Found heuristic solution: objective 46.0000000

Root relaxation: objective 3.972727e+01, 38 iterations, 0.00 seconds

    Nodes    |    Current Node    |     Objective Bounds      |     Work
 Expl Unexpl |  Obj  Depth IntInf | Incumbent    BestBd   Gap | It/Node Time

     0     0   39.72727    0    2   46.00000   39.72727  13.6%     -    0s
H    0     0                      40.0000000   39.72727  0.68%     -    0s

Explored 1 nodes (63 simplex iterations) in 0.24 seconds
Thread count was 8 (of 8 available processors)

Solution count 2: 40 46 

Optimal solution found (tolerance 1.00e-04)
Best objective 4.000000000000e+01, best bound 4.000000000000e+01, gap 0.0000%

